Route #1: 25 65 78 42 28
Route #2: 8 17
Route #3: 93 75
Route #4: 92 9 86
Route #5: 35 46 31
Route #6: 66 84 90 68
Route #7: 63 77 3
Route #8: 34 64 96 48 26 47 38
Route #9: 44 67 88 40
Route #10: 32 33 53 73 95 24
Route #11: 58 12 5
Route #12: 74 13 4
Route #13: 89 98 99 62 71
Route #14: 82 60 59
Route #15: 30 85 11 79
Route #16: 14 49 6 37 87
Route #17: 18 10 39
Route #18: 52 91 50
Route #19: 57 72 36 29 43 45 2 7
Route #20: 19 97 27
Route #21: 81 51 83
Route #22: 76 55 16 69
Route #23: 21 56 94 80
Route #24: 23 61 100
Route #25: 20 41 22 15
Route #26: 1 70 54
Cost 27591.0000
Time 16.0002